(set-logic QF_UF)
(declare-sort U 0)
(declare-sort I 0)
(declare-fun op1 (I I) I)
(declare-fun op (I I) I)
(declare-fun e4 () I)
(declare-fun e3 () I)
(declare-fun e2 () I)
(declare-fun e1 () I)
(declare-fun e0 () I)
(assert (not (or (= (op (op (op e3 e3) (op e3 e3)) (op (op (op e3 e3) (op e3 e3)) e3)) (op (op e3 e3) (op (op (op e3 e3) (op e3 e3)) e3))) (= e3 (op (op e3 e3) (op (op (op e3 e3) (op e3 e3)) e3))) (= (op (op (op e3 e3) (op e3 e3)) e3) (op (op e3 e3) (op (op (op e3 e3) (op e3 e3)) e3))) (= (op e3 e3) (op (op e3 e3) (op (op (op e3 e3) (op e3 e3)) e3))) (= (op (op e3 e3) (op e3 e3)) (op (op e3 e3) (op (op (op e3 e3) (op e3 e3)) e3))))))
(assert (or (not (= (or (or (or (or (= (op e0 e2) e0) (= (op e0 e2) e1)) (= (op e0 e2) e2)) (= (op e0 e2) e3)) (= (op e0 e2) e4)) (or (= (op (op (op e3 e3) (op e3 e3)) (op (op (op e3 e3) (op e3 e3)) e3)) (op (op e3 e3) (op (op (op e3 e3) (op e3 e3)) e3))) (= e3 (op (op e3 e3) (op (op (op e3 e3) (op e3 e3)) e3))) (= (op (op (op e3 e3) (op e3 e3)) e3) (op (op e3 e3) (op (op (op e3 e3) (op e3 e3)) e3))) (= (op e3 e3) (op (op e3 e3) (op (op (op e3 e3) (op e3 e3)) e3))) (= (op (op e3 e3) (op e3 e3)) (op (op e3 e3) (op (op (op e3 e3) (op e3 e3)) e3)))))) (not (or (or (or (or (= (op e0 e2) e0) (= (op e0 e2) e1)) (= (op e0 e2) e2)) (= (op e0 e2) e3)) (= (op e0 e2) e4))) (or (= (op (op (op e3 e3) (op e3 e3)) (op (op (op e3 e3) (op e3 e3)) e3)) (op (op e3 e3) (op (op (op e3 e3) (op e3 e3)) e3))) (= e3 (op (op e3 e3) (op (op (op e3 e3) (op e3 e3)) e3))) (= (op (op (op e3 e3) (op e3 e3)) e3) (op (op e3 e3) (op (op (op e3 e3) (op e3 e3)) e3))) (= (op e3 e3) (op (op e3 e3) (op (op (op e3 e3) (op e3 e3)) e3))) (= (op (op e3 e3) (op e3 e3)) (op (op e3 e3) (op (op (op e3 e3) (op e3 e3)) e3))))))
(assert (= (or (or (or (or (= (op e0 e2) e0) (= (op e0 e2) e1)) (= (op e0 e2) e2)) (= (op e0 e2) e3)) (= (op e0 e2) e4)) (or (= (op (op (op e3 e3) (op e3 e3)) (op (op (op e3 e3) (op e3 e3)) e3)) (op (op e3 e3) (op (op (op e3 e3) (op e3 e3)) e3))) (= e3 (op (op e3 e3) (op (op (op e3 e3) (op e3 e3)) e3))) (= (op (op (op e3 e3) (op e3 e3)) e3) (op (op e3 e3) (op (op (op e3 e3) (op e3 e3)) e3))) (= (op e3 e3) (op (op e3 e3) (op (op (op e3 e3) (op e3 e3)) e3))) (= (op (op e3 e3) (op e3 e3)) (op (op e3 e3) (op (op (op e3 e3) (op e3 e3)) e3))))))
(assert (or (or (or (or (= (op e0 e2) e0) (= (op e0 e2) e1)) (= (op e0 e2) e2)) (= (op e0 e2) e3)) (= (op e0 e2) e4)))
(check-sat)
(exit)
